lattice_vector      18.467688802374       0.000000000000       0.000000000000
lattice_vector      -0.952757896515      17.454079540852       0.000000000000
lattice_vector      -1.374562687989       0.035409778861      19.387093461955
atom      -0.793964913762      14.545066284044       0.000000000000 Li
atom      -0.635171931010      11.636053027235       0.000000000000 Li
atom      -0.476378948257       8.727039770426       0.000000000000 Li
atom      -0.317585965505       5.818026513618       0.000000000000 Li
atom      -0.158792982752       2.909013256809       0.000000000000 Li
atom       0.000000000000       0.000000000000       0.000000000000 Li
atom       5.361931353697      14.545066284044       0.000000000000 Li
atom       5.520724336450      11.636053027235       0.000000000000 Li
atom       5.679517319202       8.727039770426       0.000000000000 Li
atom       5.838310301955       5.818026513618       0.000000000000 Li
atom       5.997103284707       2.909013256809       0.000000000000 Li
atom       6.155896267460       0.000000000000       0.000000000000 Li
atom      11.517827621154      14.545066284044       0.000000000000 Li
atom      11.676620603907      11.636053027235       0.000000000000 Li
atom      11.835413586660       8.727039770426       0.000000000000 Li
atom      11.994206569412       5.818026513618       0.000000000000 Li
atom      12.152999552165       2.909013256809       0.000000000000 Li
atom      12.311792534917       0.000000000000       0.000000000000 Li
atom       2.278199581454      14.543673469232       0.002845133513 Li
atom       2.436992564207      11.634660212423       0.002845133513 Li
atom       2.595785546959       8.725646955615       0.002845133513 Li
atom       2.754578529712       5.816633698806       0.002845133513 Li
atom       2.913371512464       2.907620441997       0.002845133513 Li
atom       3.072164495217      -0.001392814811       0.002845133513 Li
atom       8.434095848911      14.543673469232       0.002845133513 Li
atom       8.592888831664      11.634660212423       0.002845133513 Li
atom       8.751681814416       8.725646955615       0.002845133513 Li
atom       8.910474797169       5.816633698806       0.002845133513 Li
atom       9.069267779921       2.907620441997       0.002845133513 Li
atom       9.228060762674      -0.001392814811       0.002845133513 Li
atom      14.589992116369      14.543673469232       0.002845133513 Li
atom      14.748785099121      11.634660212423       0.002845133513 Li
atom      14.907578081874       8.725646955615       0.002845133513 Li
atom      15.066371064626       5.816633698806       0.002845133513 Li
atom      15.225164047379       2.907620441997       0.002845133513 Li
atom      15.383957030131      -0.001392814811       0.002845133513 Li
atom      -2.182298083929      10.222752255952       1.940381483007 Li
atom      -2.023505101176       7.313738999142       1.940381483007 Li
atom      -1.864712118424       4.404725742335       1.940381483007 Li
atom      -1.705919135671       1.495712485526       1.940381483007 Li
atom       3.656012218024      16.040778769569       1.940381483007 Li
atom       3.814805200776      13.131765512761       1.940381483007 Li
atom       3.973598183529      10.222752255952       1.940381483007 Li
atom       4.132391166281       7.313738999142       1.940381483007 Li
atom       4.291184149034       4.404725742335       1.940381483007 Li
atom       4.449977131786       1.495712485526       1.940381483007 Li
atom      -2.341091066681      13.131765512761       1.940381483007 Li
atom      -2.499884049434      16.040778769569       1.940381483007 Li
atom       9.811908485483      16.040778769569       1.940381483007 Li
atom       9.970701468235      13.131765512761       1.940381483007 Li
atom      10.129494450988      10.222752255952       1.940381483007 Li
atom      10.288287433740       7.313738999142       1.940381483007 Li
atom      10.447080416493       4.404725742335       1.940381483007 Li
atom      10.605873399245       1.495712485526       1.940381483007 Li
atom       0.578696602674      15.970456140516       1.947644508604 Li
atom       0.737489585427      13.061442883706       1.947644508604 Li
atom       0.896282568179      10.152429626897       1.947644508604 Li
atom       1.055075550932       7.243416370090       1.947644508604 Li
atom       1.213868533684       4.334403113280       1.947644508604 Li
atom       1.372661516437       1.425389856471       1.947644508604 Li
atom       6.734592870132      15.970456140516       1.947644508604 Li
atom       6.893385852884      13.061442883706       1.947644508604 Li
atom       7.052178835637      10.152429626897       1.947644508604 Li
atom       7.210971818389       7.243416370090       1.947644508604 Li
atom       7.369764801142       4.334403113280       1.947644508604 Li
atom       7.528557783894       1.425389856471       1.947644508604 Li
atom      12.890489137589      15.970456140516       1.947644508604 Li
atom      13.049282120342      13.061442883706       1.947644508604 Li
atom      13.208075103094      10.152429626897       1.947644508604 Li
atom      13.366868085847       7.243416370090       1.947644508604 Li
atom      13.525661068599       4.334403113280       1.947644508604 Li
atom      13.684454051352       1.425389856471       1.947644508604 Li
